&CONTROL 
   calculation = 'scf'
   restart_mode = 'from_scratch' 
   prefix = 'SrB3C3' 
   tstress = .true. 
   tprnfor = .true. 
   pseudo_dir = '/home/cataldo/PSEUDOS/QE-pseudopotentials/'
   outdir = './output' 
   forc_conv_thr = 0.0001
&end 
&SYSTEM 
   ibrav = 1
   nat = 14
   ntyp = 3 
   celldm(1) = 9.21446422
   ecutwfc = 80 
   occupations = 'smearing' 
   smearing = 'mp' 
   degauss = 0.02 
&end 
&ELECTRONS 
   conv_thr =  1e-06 
   mixing_beta = 0.7 
&end 
&IONS 
   ion_dynamics = 'bfgs' 
&end 
&CELL 
   cell_dynamics = 'bfgs' 
   cell_dofree = 'ibrav' 
   press = 0.0001 
&end 

ATOMIC_SPECIES 
   Sr   87.620    Sr_ONCV_PBE_sr.upf 
   B   10.811    B_ONCV_PBE_sr.upf 
   C   12.001    C_ONCV_PBE_sr.upf 

ATOMIC_POSITIONS crystal 
Sr     0.000000000         0.000000000         0.000000000
Sr     0.500000000         0.500000000         0.500000000
B     0.000000000         0.250000000         0.500000000
B     0.000000000         0.750000000         0.500000000
B     0.500000000         0.000000000         0.250000000
B     0.500000000         0.000000000         0.750000000
B     0.250000000         0.500000000         0.000000000
B     0.750000000         0.500000000         0.000000000
C     0.000000000         0.500000000         0.250000000
C     0.000000000         0.500000000         0.750000000
C     0.250000000         0.000000000         0.500000000
C     7.750000000         0.000000000         0.500000000
C     0.500000000         0.250000000         0.000000000
C     0.500000000         0.750000000         0.000000000

K_POINTS automatic 
8  8  7    0  0  0 
