EA78    3.908  2.677  2.689 82.84 96.01 109.85 Sym.group:    2
1.0
    3.907693    -0.026584    -0.009739
   -0.891499     2.523732     0.009859
   -0.273150     0.248482     2.663267
   S   H
   2   6
Direct
    0.203228     0.954116     0.660849    1.717745 
    0.517911     0.575573     0.136093    1.736512 
    0.017934     0.759590     0.132206    1.595732 
    0.024119     0.280537     0.231148    1.794001 
    0.920079     0.326139     0.695930    1.882656 
    0.797132     0.199334     0.113660    1.758898 
    0.704805     0.763076     0.669614    1.583561 
    0.697734     0.246730     0.573036    1.866888 
