&CONTROL
  calculation  = 'vc-relax'
  restart_mode = 'from_scratch'
  prefix       = 'H3S'
  wf_collect   = .false.
  disk_io = 'none'
  etot_conv_thr=1.0D-4
  forc_conv_thr=1.0D-3
  nstep = 50
  pseudo_dir = "./"
/
&SYSTEM
  ibrav     = 0
  ecutwfc   = 80
  ecutrho   = 320
  nosym     = .true.
  occupations = 'smearing'
  smearing = 'marzari-vanderbilt'
  degauss = 0.02
/
&ELECTRONS
  conv_thr = 1.D-7
  mixing_beta = 0.7
  electron_maxstep = 100
/
&IONS
  ion_dynamics = "bfgs"
  trust_radius_max = 0.50
/
&CELL
  cell_factor = 2.50
  press = 2000
  press_conv_thr = 1.0
  cell_dynamics = "bfgs"
/
ATOMIC_SPECIES
H   1.0078   H_ONCV_PBE_sr.upf
S  32.065    S_ONCV_PBE_sr.upf
!!! STEP 4 
